x = 16;
y = 11;
c = 60;
n = 66;

p = [60  93  86  34  98  66  83  21  82  60  78  48  65  70  92  96  23  47  89  69  29  74  96  12  82  69  31  30  93  29  30  10  97  11  69  57  39  64  24  77  12  70  46  85  52  40  77  16  62  21  29  96  24  10  36  14  24  34  99  66  53  12  48  18  79  33];
w = [7  3  10  2  7  9  7  4  3  2  3  5  2  8  10  9  3  10  6  2  2  2  1  1  4  8  1  2  2  1  6  10  10  1  4  3  8  2  2  8  5  6  1  3  4  10  2  10  7  3  9  1  3  2  7  1  10  2  4  4  9  7  4  10  2  1];
s = [10  6  3  3  8  7  8  4  1  7  6  9  6  9  10  8  9  10  7  7  11  1  4  11  6  6  11  8  2  2  1  11  10  7  3  7  11  10  10  4  9  1  1  4  11  5  5  7  6  1  2  7  6  5  10  10  9  9  2  7  9  11  11  10  3  10];
